c Modular CNF with 2 modules
c Generated CNF instance
p cnf 20 320
6 1 4 0
6 1 -4 0
6 -1 4 0
-6 1 4 0
8 1 4 0
8 1 -4 0
8 -1 4 0
-8 1 4 0
10 6 1 0
10 6 -1 0
10 -6 1 0
-10 6 1 0
4 9 5 0
4 9 -5 0
4 -9 5 0
-4 9 5 0
3 2 7 0
3 2 -7 0
3 -2 7 0
-3 2 7 0
1 5 10 0
1 5 -10 0
1 -5 10 0
-1 5 10 0
5 1 10 0
5 1 -10 0
5 -1 10 0
-5 1 10 0
1 10 5 0
1 10 -5 0
1 -10 5 0
-1 10 5 0
5 2 9 0
5 2 -9 0
5 -2 9 0
-5 2 9 0
10 7 1 0
10 7 -1 0
10 -7 1 0
-10 7 1 0
8 7 10 0
8 7 -10 0
8 -7 10 0
-8 7 10 0
6 10 7 0
6 10 -7 0
6 -10 7 0
-6 10 7 0
2 9 7 0
2 9 -7 0
2 -9 7 0
-2 9 7 0
10 3 8 0
10 3 -8 0
10 -3 8 0
-10 3 8 0
5 9 7 0
5 9 -7 0
5 -9 7 0
-5 9 7 0
2 4 10 0
2 4 -10 0
2 -4 10 0
-2 4 10 0
9 7 4 0
9 7 -4 0
9 -7 4 0
-9 7 4 0
3 10 6 0
3 10 -6 0
3 -10 6 0
-3 10 6 0
2 1 10 0
2 1 -10 0
2 -1 10 0
-2 1 10 0
9 1 8 0
9 1 -8 0
9 -1 8 0
-9 1 8 0
6 10 3 0
6 10 -3 0
6 -10 3 0
-6 10 3 0
4 1 7 0
4 1 -7 0
4 -1 7 0
-4 1 7 0
2 1 8 0
2 1 -8 0
2 -1 8 0
-2 1 8 0
8 10 2 0
8 10 -2 0
8 -10 2 0
-8 10 2 0
6 7 1 0
6 7 -1 0
6 -7 1 0
-6 7 1 0
4 6 7 0
4 6 -7 0
4 -6 7 0
-4 6 7 0
8 3 1 0
8 3 -1 0
8 -3 1 0
-8 3 1 0
7 8 4 0
7 8 -4 0
7 -8 4 0
-7 8 4 0
10 2 8 0
10 2 -8 0
10 -2 8 0
-10 2 8 0
2 6 8 0
2 6 -8 0
2 -6 8 0
-2 6 8 0
1 4 5 0
1 4 -5 0
1 -4 5 0
-1 4 5 0
9 8 3 0
9 8 -3 0
9 -8 3 0
-9 8 3 0
5 10 3 0
5 10 -3 0
5 -10 3 0
-5 10 3 0
2 9 10 0
2 9 -10 0
2 -9 10 0
-2 9 10 0
3 7 2 0
3 7 -2 0
3 -7 2 0
-3 7 2 0
5 1 9 0
5 1 -9 0
5 -1 9 0
-5 1 9 0
9 7 3 0
9 7 -3 0
9 -7 3 0
-9 7 3 0
3 9 6 0
3 9 -6 0
3 -9 6 0
-3 9 6 0
5 2 3 0
5 2 -3 0
5 -2 3 0
-5 2 3 0
8 6 1 0
8 6 -1 0
8 -6 1 0
-8 6 1 0
19 11 13 0
19 11 -13 0
19 -11 13 0
-19 11 13 0
17 11 16 0
17 11 -16 0
17 -11 16 0
-17 11 16 0
15 17 16 0
15 17 -16 0
15 -17 16 0
-15 17 16 0
17 14 19 0
17 14 -19 0
17 -14 19 0
-17 14 19 0
11 18 20 0
11 18 -20 0
11 -18 20 0
-11 18 20 0
15 13 11 0
15 13 -11 0
15 -13 11 0
-15 13 11 0
18 20 17 0
18 20 -17 0
18 -20 17 0
-18 20 17 0
13 15 14 0
13 15 -14 0
13 -15 14 0
-13 15 14 0
18 16 11 0
18 16 -11 0
18 -16 11 0
-18 16 11 0
18 12 19 0
18 12 -19 0
18 -12 19 0
-18 12 19 0
14 15 20 0
14 15 -20 0
14 -15 20 0
-14 15 20 0
13 18 20 0
13 18 -20 0
13 -18 20 0
-13 18 20 0
11 17 16 0
11 17 -16 0
11 -17 16 0
-11 17 16 0
11 15 16 0
11 15 -16 0
11 -15 16 0
-11 15 16 0
15 14 12 0
15 14 -12 0
15 -14 12 0
-15 14 12 0
14 16 20 0
14 16 -20 0
14 -16 20 0
-14 16 20 0
15 18 19 0
15 18 -19 0
15 -18 19 0
-15 18 19 0
14 17 18 0
14 17 -18 0
14 -17 18 0
-14 17 18 0
19 20 12 0
19 20 -12 0
19 -20 12 0
-19 20 12 0
17 16 13 0
17 16 -13 0
17 -16 13 0
-17 16 13 0
19 18 20 0
19 18 -20 0
19 -18 20 0
-19 18 20 0
19 11 18 0
19 11 -18 0
19 -11 18 0
-19 11 18 0
12 17 11 0
12 17 -11 0
12 -17 11 0
-12 17 11 0
18 17 15 0
18 17 -15 0
18 -17 15 0
-18 17 15 0
13 15 17 0
13 15 -17 0
13 -15 17 0
-13 15 17 0
19 20 17 0
19 20 -17 0
19 -20 17 0
-19 20 17 0
18 16 17 0
18 16 -17 0
18 -16 17 0
-18 16 17 0
13 20 15 0
13 20 -15 0
13 -20 15 0
-13 20 15 0
15 14 12 0
15 14 -12 0
15 -14 12 0
-15 14 12 0
11 18 19 0
11 18 -19 0
11 -18 19 0
-11 18 19 0
13 14 15 0
13 14 -15 0
13 -14 15 0
-13 14 15 0
12 20 13 0
12 20 -13 0
12 -20 13 0
-12 20 13 0
16 12 13 0
16 12 -13 0
16 -12 13 0
-16 12 13 0
11 14 19 0
11 14 -19 0
11 -14 19 0
-11 14 19 0
17 20 11 0
17 20 -11 0
17 -20 11 0
-17 20 11 0
13 12 14 0
13 12 -14 0
13 -12 14 0
-13 12 14 0
20 14 17 0
20 14 -17 0
20 -14 17 0
-20 14 17 0
17 19 11 0
17 19 -11 0
17 -19 11 0
-17 19 11 0
19 17 16 0
19 17 -16 0
19 -17 16 0
-19 17 16 0
19 12 15 0
19 12 -15 0
19 -12 15 0
-19 12 15 0
